WARNING: for repeatability, setting FPU to use double precision
============================[ Problem Statistics ]=============================
|                                                                             |
|  Number of variables:            50                                         |
|  Number of clauses:             218                                         |
|  Parse time:                   0.00 s                                       |
|                                                                             |
============================[ Search Statistics ]==============================
| Conflicts |          ORIGINAL         |          LEARNT          | Progress |
|           |    Vars  Clauses Literals |    Limit  Clauses Lit/Cl |          |
===============================================================================
===============================================================================
restarts              : 1
conflicts             : 5              (3685 /sec)
decisions             : 13             (0.00 % random) (9580 /sec)
propagations          : 112            (82535 /sec)
conflict literals     : 26             (16.13 % deleted)
Memory used           : 20.00 MB
CPU time              : 0.001357 s

SATISFIABLE
